770.74 0
0 38 65 11 66 59 14 8 0
0 7 53 35 19 54 13 57 15 5 29 45 0
0 12 72 39 9 25 55 31 10 58 26 0
0 37 20 70 60 71 36 69 61 21 47 48 68 0
0 4 27 52 46 34 67 0
0 50 18 24 49 3 44 32 40 17 0
0 2 30 74 28 62 73 33 6 75 0
0 23 56 41 43 42 64 22 1 63 16 51 0